(declare-const delta___cost Int)
(declare-const delta_tmp Int)
(declare-const delta_x Int)
(assert (exists
         ((|tmp'?1| Int) (|x'?2| Int) (|__cost'?3| Int) (havoc?4 Int)
            (tmp?5 Int) (n?6 Int) (x?7 Int) (__cost?8 Int))
         (and (< (- n?6) 0) (< (- x?7) 0) (< (- __cost?8) 0)
                (< (+ x?7 (- n?6)) 0) (or (< havoc?4 0) (< 0 havoc?4))
                (<= (- __cost?8) 0) (<= (+ (- __cost?8) -1) 0)
                (= (+ |tmp'?1| (- havoc?4)) 0) (= (+ |x'?2| (- x?7) -1) 0)
                (= (+ |__cost'?3| (- __cost?8) -1) 0)
                (= delta___cost (+ |__cost'?3| (- __cost?8)))
                (= delta_x (+ |x'?2| (- x?7)))
                (= delta_tmp (+ |tmp'?1| (- tmp?5))))))
(check-sat)
